Instance name: /mnt/c/Users/ORG/CLionProjects/uMV-FSTSP/Murray_Chu_2015_test_data/FSTSP/FSTSP_10_customer_problems/20140810T123440v5

drone speed: 0.4 miles/minute
uav non-eligible customer: 4 5 
Printing number of nodes: 11

Gurobi Optimizer version 11.0.0 build v11.0.0rc2 (linux64 - "Ubuntu 22.04.3 LTS")

CPU model: 13th Gen Intel(R) Core(TM) i5-13500, instruction set [SSE2|AVX|AVX2]
Thread count: 10 physical cores, 20 logical processors, using up to 20 threads

Optimize a model with 44651 rows, 1957 columns and 1837624 nonzeros
Model fingerprint: 0x20e011dc
Variable types: 11 continuous, 1946 integer (1814 binary)
Coefficient statistics:
  Matrix range     [1e+00, 2e+01]
  Objective range  [1e+00, 2e+01]
  Bounds range     [1e+00, 1e+00]
  RHS range        [1e+00, 9e+00]
Found heuristic solution: objective 159.2244739
Presolve removed 26650 rows and 837 columns
Presolve time: 2.24s
Presolved: 18001 rows, 1120 columns, 633995 nonzeros
Variable types: 8 continuous, 1112 integer (1112 binary)
Found heuristic solution: objective 122.1772671
Root relaxation presolved: 18001 rows, 1120 columns, 633995 nonzeros


Root relaxation: objective 4.243038e+01, 2119 iterations, 0.79 seconds (1.97 work units)

    Nodes    |    Current Node    |     Objective Bounds      |     Work
 Expl Unexpl |  Obj  Depth IntInf | Incumbent    BestBd   Gap | It/Node Time

     0     0   42.43038    0   97  122.17727   42.43038  65.3%     -    3s
H    0     0                      98.9679676   42.43038  57.1%     -    3s
H    0     0                      61.4459132   42.43038  30.9%     -    3s
H    0     0                      52.8065764   42.43038  19.6%     -    3s
     0     0   42.49265    0  136   52.80658   42.49265  19.5%     -    4s
     0     0   42.58421    0  148   52.80658   42.58421  19.4%     -    6s
     0     0   42.59272    0  140   52.80658   42.59272  19.3%     -    6s
     0     0   42.60055    0  162   52.80658   42.60055  19.3%     -    7s
H    0     0                      51.9652539   42.60055  18.0%     -    7s
     0     0   42.63974    0  156   51.96525   42.63974  17.9%     -    7s
     0     0   42.73968    0  164   51.96525   42.73968  17.8%     -    8s
H    0     0                      51.0925181   42.77368  16.3%     -    8s
     0     0   42.77368    0  167   51.09252   42.77368  16.3%     -    8s
H    0     0                      47.7565909   42.79868  10.4%     -    8s
     0     0   42.79868    0  177   47.75659   42.79868  10.4%     -    8s
     0     0   42.79868    0  175   47.75659   42.79868  10.4%     -    9s
H    0     0                      46.7473431   42.79868  8.45%     -    9s
     0     0   42.79868    0  163   46.74734   42.79868  8.45%     -    9s
     0     0   42.79868    0  163   46.74734   42.79868  8.45%     -    9s
     0     0   42.79868    0   97   46.74734   42.79868  8.45%     -   14s
     0     0   42.79868    0  124   46.74734   42.79868  8.45%     -   15s
     0     0   42.79868    0  136   46.74734   42.79868  8.45%     -   15s
     0     0   42.79868    0  140   46.74734   42.79868  8.45%     -   15s
     0     0   42.79868    0  148   46.74734   42.79868  8.45%     -   15s
     0     0   42.79868    0  145   46.74734   42.79868  8.45%     -   16s
     0     0   42.79868    0  144   46.74734   42.79868  8.45%     -   16s
     0     0   42.79868    0  148   46.74734   42.79868  8.45%     -   16s
     0     0   42.79868    0  150   46.74734   42.79868  8.45%     -   16s
     0     0   42.79868    0  142   46.74734   42.79868  8.45%     -   17s
     0     0   42.79868    0  153   46.74734   42.79868  8.45%     -   17s
     0     0   42.79868    0  150   46.74734   42.79868  8.45%     -   17s
     0     0   42.79868    0  151   46.74734   42.79868  8.45%     -   18s
     0     0   42.79868    0  152   46.74734   42.79868  8.45%     -   18s
     0     0   42.79868    0  152   46.74734   42.79868  8.45%     -   18s
     0     0   42.82613    0  153   46.74734   42.82613  8.39%     -   18s
     0     0   42.82613    0  153   46.74734   42.82613  8.39%     -   18s
     0     2   42.82913    0  150   46.74734   42.82913  8.38%     -   19s
     1     5   42.82913    1  138   46.74734   42.82913  8.38%  40.0   20s
H   37    41                      46.3538975   42.82913  7.60%   248   22s
H   83    61                      45.4555430   42.82913  5.78%   212   24s
    87    67   44.01543    9   73   45.45554   42.82913  5.78%   208   25s
   244    56   45.22636    9   48   45.45554   43.05212  5.29%   111   30s
   547    32   44.25773   12  101   45.45554   43.45171  4.41%  78.8   35s

Cutting planes:
  Gomory: 7
  Cover: 3
  MIR: 24
  StrongCG: 1
  Inf proof: 1
  Zero half: 11
  RLT: 42
  BQP: 1

Explored 866 nodes (66498 simplex iterations) in 38.76 seconds (54.24 work units)
Thread count was 20 (of 20 available processors)

Solution count 10: 45.4555 46.3539 46.7473 ... 98.968

Optimal solution found (tolerance 1.00e-04)
Best objective 4.545554300294e+01, best bound 4.545554300294e+01, gap 0.0000%
Truck arcs: 
0 5 7.16529
1 8 2.95098
2 6 3.99917
4 10 4.31275
5 7 1.61466
6 1 3.41898
7 2 6.42059
8 4 5.54215
10 11 5.10809
Theta:
Theta_3 = 1
Theta_9 = 1
Drone arcs:
0 9
3 10
6 3
9 2
Gamma:
gamma_3_1_8= 1
gamma_3_4_10= 1
gamma_3_6_1= 1
gamma_3_8_4= 1
gamma_9_0_5= 1
gamma_9_5_7= 1
gamma_9_7_2= 1
Sigma:
Sigma_1 = 0
Sigma_2 = 0
Sigma_3 = 1.92289
Sigma_4 = 0
Sigma_5 = 0
Sigma_6 = 0
Sigma_7 = 0
Sigma_8 = 0
Sigma_9 = 0
Sigma_10 = 0
Sigma_11 = 0
middle of 3 sortie are: 1 4 8 
middle of 9 sortie are: 5 7 
Objective: 45.4555
Number of sorties: 2
